
Gurobi 11.0.2 (win64) logging started Mon Jan 20 14:45:05 2025

Set parameter LogFile to value "log_STTP1_targetS2_E3_Gurobi.log"
Set parameter Method to value 0

Gurobi 11.0.2 (win64) logging started Mon Jan 20 14:45:18 2025

Set parameter LogFile to value "log_STTP1_targetS2_E3_Gurobi.log"
Gurobi Optimizer version 11.0.2 build v11.0.2rc0 (win64 - Windows 11.0 (22621.2))

CPU model: 12th Gen Intel(R) Core(TM) i7-12700, instruction set [SSE2|AVX|AVX2]
Thread count: 12 physical cores, 20 logical processors, using up to 20 threads

Optimize a model with 3093642 rows, 4788 columns and 6187470 nonzeros
Model fingerprint: 0x896479ef
Variable types: 0 continuous, 4788 integer (4788 binary)
Coefficient statistics:
  Matrix range     [1e+00, 3e+00]
  Objective range  [1e+00, 1e+00]
  Bounds range     [0e+00, 0e+00]
  RHS range        [1e+00, 2e+00]
Found heuristic solution: objective -0.0000000
Presolve removed 3093642 rows and 4788 columns
Presolve time: 0.68s
Presolve: All rows and columns removed

Explored 0 nodes (0 simplex iterations) in 1.16 seconds (1.17 work units)
Thread count was 1 (of 20 available processors)

Solution count 1: -0 
No other solutions better than -0

Optimal solution found (tolerance 1.00e-04)
Best objective -0.000000000000e+00, best bound -0.000000000000e+00, gap 0.0000%

User-callback calls 400, time in user-callback 0.00 sec
